jobs  (incl. supersource/sink ):	52
RESOURCES
- renewable                 : 4 R
- nonrenewable              : 2 N
- doubly constrained        : 0 D
************************************************************************
PRECEDENCE RELATIONS:
jobnr.    #modes  #successors   successors
1	1	10		2 3 4 5 6 7 8 9 11 17 
2	6	8		28 25 23 18 16 13 12 10 
3	6	10		28 27 26 25 24 23 20 16 15 14 
4	6	9		31 27 26 25 24 23 20 14 12 
5	6	7		27 25 23 22 20 15 14 
6	6	6		26 23 22 18 15 14 
7	6	6		27 26 25 15 14 12 
8	6	7		36 32 28 25 19 15 14 
9	6	5		31 25 23 19 13 
10	6	4		32 27 15 14 
11	6	7		34 33 30 28 27 24 23 
12	6	6		39 37 33 32 29 21 
13	6	4		37 36 27 21 
14	6	4		51 37 33 21 
15	6	7		51 48 37 35 34 33 31 
16	6	2		47 22 
17	6	8		51 50 49 42 39 37 34 32 
18	6	6		49 41 39 37 34 27 
19	6	9		50 49 48 47 42 39 38 37 33 
20	6	8		51 49 48 47 41 38 37 35 
21	6	6		48 41 38 35 34 30 
22	6	6		49 38 37 36 35 32 
23	6	7		51 50 47 39 38 37 32 
24	6	5		49 47 37 35 32 
25	6	6		51 50 48 41 34 30 
26	6	5		50 49 47 33 32 
27	6	8		51 50 48 47 46 45 42 40 
28	6	5		48 46 45 41 39 
29	6	5		49 48 47 45 38 
30	6	6		49 47 46 45 44 40 
31	6	4		49 47 46 39 
32	6	5		48 45 44 41 40 
33	6	5		46 45 44 41 40 
34	6	5		47 46 45 44 43 
35	6	4		50 44 42 40 
36	6	3		46 45 41 
37	6	3		46 45 44 
38	6	2		44 40 
39	6	2		44 40 
40	6	1		43 
41	6	1		43 
42	6	1		43 
43	6	1		52 
44	6	1		52 
45	6	1		52 
46	6	1		52 
47	6	1		52 
48	6	1		52 
49	6	1		52 
50	6	1		52 
51	6	1		52 
52	1	0		
************************************************************************
REQUESTS/DURATIONS
jobnr.	mode	dur	R1	R2	R3	R4	N1	N2	
------------------------------------------------------------------------
1	1	0	0	0	0	0	0	0	
2	1	3	4	4	3	2	12	16	
	2	4	3	4	2	2	11	13	
	3	15	3	4	2	2	10	11	
	4	25	3	4	2	1	10	10	
	5	27	2	4	1	1	9	4	
	6	28	1	4	1	1	7	4	
3	1	1	5	3	4	2	18	10	
	2	10	4	2	3	2	18	9	
	3	11	4	2	3	2	18	8	
	4	18	3	2	3	2	18	7	
	5	28	2	2	3	2	18	6	
	6	29	2	2	3	2	18	5	
4	1	1	2	2	4	3	27	26	
	2	2	2	1	3	3	27	24	
	3	3	2	1	2	3	27	23	
	4	14	1	1	2	2	27	23	
	5	16	1	1	2	2	26	22	
	6	30	1	1	1	1	26	20	
5	1	5	5	5	3	5	26	14	
	2	9	4	4	2	5	23	14	
	3	10	4	4	2	5	17	14	
	4	17	3	4	2	5	16	13	
	5	18	2	3	1	5	13	13	
	6	30	2	3	1	5	7	13	
6	1	2	4	3	5	4	23	26	
	2	7	3	2	4	4	18	24	
	3	8	3	2	4	4	15	23	
	4	22	3	1	3	3	10	22	
	5	23	2	1	3	3	8	22	
	6	24	2	1	3	3	4	21	
7	1	1	4	2	2	2	20	18	
	2	8	3	1	2	2	15	17	
	3	12	3	1	2	2	13	17	
	4	15	3	1	2	2	12	17	
	5	20	3	1	2	2	8	17	
	6	29	3	1	2	2	6	17	
8	1	1	4	3	1	2	10	12	
	2	8	4	3	1	1	10	11	
	3	10	4	3	1	1	9	11	
	4	21	3	2	1	1	9	11	
	5	26	2	2	1	1	8	10	
	6	28	2	2	1	1	8	9	
9	1	6	3	2	2	5	11	14	
	2	19	3	2	1	5	9	12	
	3	21	3	2	1	5	9	11	
	4	22	3	2	1	5	8	10	
	5	26	3	2	1	5	6	9	
	6	28	3	2	1	5	5	9	
10	1	1	5	4	4	5	18	29	
	2	6	4	3	4	4	17	27	
	3	9	3	3	4	3	17	25	
	4	15	3	2	4	3	16	24	
	5	16	2	2	4	2	15	20	
	6	19	2	2	4	2	15	19	
11	1	2	3	3	4	3	29	20	
	2	9	2	2	3	3	23	17	
	3	14	2	2	3	2	17	15	
	4	15	2	2	3	2	15	14	
	5	18	2	2	3	1	11	13	
	6	25	2	2	3	1	6	10	
12	1	17	2	3	2	5	24	22	
	2	18	2	3	1	3	22	20	
	3	19	2	3	1	3	19	18	
	4	23	2	3	1	2	18	13	
	5	24	2	3	1	2	16	7	
	6	27	2	3	1	1	12	3	
13	1	7	2	3	2	2	26	17	
	2	13	2	2	1	1	24	16	
	3	20	2	2	1	1	22	15	
	4	21	2	2	1	1	22	14	
	5	28	2	2	1	1	18	15	
	6	29	2	2	1	1	17	14	
14	1	8	4	5	4	3	23	24	
	2	12	3	4	3	2	20	24	
	3	15	3	4	3	2	17	23	
	4	20	3	4	2	1	10	23	
	5	24	3	4	1	1	7	23	
	6	29	3	4	1	1	4	22	
15	1	3	2	4	3	4	12	24	
	2	7	2	4	3	4	11	23	
	3	8	2	4	2	4	9	22	
	4	15	2	4	2	4	9	21	
	5	25	1	4	2	3	7	21	
	6	26	1	4	1	3	6	20	
16	1	2	4	4	4	4	22	26	
	2	8	4	3	4	3	22	23	
	3	9	4	3	4	3	21	18	
	4	20	4	3	4	2	21	13	
	5	21	4	3	4	1	21	10	
	6	28	4	3	4	1	20	5	
17	1	6	4	4	4	4	25	27	
	2	14	4	3	4	4	24	27	
	3	15	4	3	3	4	24	27	
	4	19	4	3	3	3	24	27	
	5	22	4	3	3	2	23	26	
	6	28	4	3	2	2	23	26	
18	1	4	1	3	5	5	27	11	
	2	5	1	2	3	5	24	11	
	3	6	1	2	3	5	22	10	
	4	16	1	2	2	5	18	7	
	5	19	1	1	2	5	15	7	
	6	22	1	1	1	5	12	6	
19	1	3	2	4	4	4	13	16	
	2	10	2	3	4	4	11	13	
	3	11	2	3	4	4	11	11	
	4	12	2	3	4	4	11	9	
	5	28	2	1	4	4	9	7	
	6	30	2	1	4	4	9	5	
20	1	1	4	3	4	1	24	16	
	2	5	3	3	4	1	23	14	
	3	19	3	3	4	1	23	11	
	4	23	3	3	4	1	23	8	
	5	28	2	3	4	1	22	7	
	6	29	2	3	4	1	22	3	
21	1	6	3	3	3	4	24	5	
	2	7	3	2	3	3	23	5	
	3	22	3	2	3	3	23	4	
	4	23	2	2	2	2	22	4	
	5	26	2	1	1	2	20	3	
	6	30	2	1	1	1	20	3	
22	1	1	3	2	4	4	14	8	
	2	9	2	2	3	4	12	7	
	3	11	2	2	3	3	11	6	
	4	14	1	2	3	3	9	4	
	5	15	1	2	3	3	7	3	
	6	27	1	2	3	2	4	3	
23	1	5	4	3	3	3	30	27	
	2	7	4	2	3	3	24	26	
	3	18	4	2	3	3	23	23	
	4	21	4	1	3	3	17	22	
	5	23	4	1	3	3	13	19	
	6	30	4	1	3	3	12	18	
24	1	12	4	4	4	4	10	28	
	2	13	4	4	4	4	9	27	
	3	19	4	4	4	4	9	26	
	4	20	4	4	4	3	7	27	
	5	23	4	4	3	3	6	26	
	6	29	4	4	3	2	6	26	
25	1	1	4	3	4	4	13	27	
	2	6	3	2	4	4	10	26	
	3	14	2	2	4	4	9	25	
	4	15	2	1	4	4	9	24	
	5	16	2	1	4	4	7	21	
	6	19	1	1	4	4	6	21	
26	1	3	3	5	3	5	23	19	
	2	10	3	5	3	4	19	18	
	3	14	3	5	3	4	15	18	
	4	18	3	5	3	3	9	17	
	5	19	3	5	3	2	6	16	
	6	26	3	5	3	2	5	15	
27	1	2	3	5	4	5	28	21	
	2	11	3	4	4	3	28	18	
	3	12	3	3	4	3	27	17	
	4	17	3	3	4	3	27	10	
	5	18	3	3	4	2	27	8	
	6	20	3	2	4	1	26	5	
28	1	2	4	2	2	4	21	17	
	2	15	3	1	1	3	21	15	
	3	20	3	1	1	3	18	14	
	4	22	2	1	1	2	15	12	
	5	26	1	1	1	2	14	10	
	6	28	1	1	1	2	12	7	
29	1	6	3	3	1	2	4	26	
	2	11	2	3	1	1	3	25	
	3	12	2	3	1	1	3	23	
	4	18	2	3	1	1	3	21	
	5	21	2	3	1	1	2	21	
	6	27	2	3	1	1	2	19	
30	1	9	3	1	2	4	18	17	
	2	16	2	1	2	4	15	17	
	3	17	2	1	2	4	13	16	
	4	18	2	1	1	4	8	14	
	5	23	2	1	1	4	6	13	
	6	25	2	1	1	4	5	13	
31	1	2	2	4	5	3	17	27	
	2	16	2	4	4	3	16	23	
	3	22	2	4	4	3	13	20	
	4	23	2	4	4	3	12	19	
	5	24	2	3	4	2	10	15	
	6	25	2	3	4	2	6	12	
32	1	7	5	5	4	1	28	6	
	2	8	4	4	3	1	24	5	
	3	13	4	3	3	1	20	4	
	4	20	4	3	3	1	19	4	
	5	22	4	2	3	1	15	3	
	6	26	4	2	3	1	14	2	
33	1	9	4	2	2	5	12	27	
	2	13	3	2	1	4	10	27	
	3	19	3	2	1	4	9	23	
	4	20	2	2	1	4	8	22	
	5	21	1	2	1	4	7	21	
	6	29	1	2	1	4	5	19	
34	1	1	5	3	4	4	15	19	
	2	4	3	3	3	4	13	17	
	3	11	3	3	3	3	12	13	
	4	18	3	3	2	3	11	12	
	5	20	1	3	2	2	9	6	
	6	25	1	3	2	2	9	4	
35	1	3	3	4	1	2	26	4	
	2	11	2	3	1	2	25	4	
	3	16	2	3	1	2	24	3	
	4	20	2	3	1	2	24	2	
	5	22	2	1	1	2	24	2	
	6	25	2	1	1	2	23	1	
36	1	4	2	5	3	5	9	21	
	2	15	2	4	3	5	9	18	
	3	19	2	3	3	5	9	15	
	4	20	2	3	3	5	9	11	
	5	21	2	3	2	5	8	10	
	6	26	2	2	2	5	8	8	
37	1	2	2	1	3	4	19	26	
	2	5	2	1	2	4	19	23	
	3	10	2	1	2	4	18	22	
	4	19	2	1	1	3	18	19	
	5	21	2	1	1	3	16	19	
	6	23	2	1	1	3	16	16	
38	1	2	5	4	2	3	19	20	
	2	6	4	4	1	3	18	19	
	3	9	4	4	1	3	16	19	
	4	10	3	4	1	2	14	17	
	5	15	3	3	1	2	13	17	
	6	16	3	3	1	2	12	16	
39	1	4	4	5	3	4	26	26	
	2	9	4	4	2	4	22	21	
	3	14	4	4	2	4	20	20	
	4	18	4	3	2	4	19	18	
	5	26	3	3	2	4	15	14	
	6	27	3	3	2	4	15	11	
40	1	5	5	1	3	1	9	23	
	2	10	4	1	3	1	9	19	
	3	13	4	1	3	1	7	18	
	4	19	4	1	3	1	7	15	
	5	22	4	1	2	1	6	13	
	6	29	4	1	2	1	5	10	
41	1	8	4	5	4	1	14	20	
	2	9	3	4	3	1	14	18	
	3	12	3	3	3	1	14	15	
	4	19	2	2	3	1	14	13	
	5	26	2	1	2	1	14	9	
	6	28	1	1	2	1	14	9	
42	1	10	4	4	1	4	19	25	
	2	12	4	3	1	4	18	25	
	3	16	4	3	1	3	18	25	
	4	17	3	3	1	3	17	25	
	5	19	3	2	1	2	17	25	
	6	26	2	1	1	2	16	25	
43	1	5	2	4	4	4	14	16	
	2	6	2	3	4	3	14	14	
	3	12	2	3	4	2	12	13	
	4	22	1	3	4	2	11	8	
	5	25	1	2	4	2	11	6	
	6	26	1	2	4	1	9	4	
44	1	2	3	4	5	4	16	3	
	2	4	2	3	4	3	12	3	
	3	6	2	3	4	3	10	3	
	4	16	2	3	4	3	8	2	
	5	22	2	2	3	3	5	2	
	6	24	2	2	3	3	3	2	
45	1	6	4	2	3	5	14	29	
	2	12	4	1	3	3	13	27	
	3	19	3	1	2	3	11	25	
	4	21	3	1	2	2	8	23	
	5	25	2	1	1	1	7	19	
	6	30	1	1	1	1	5	17	
46	1	4	3	4	4	4	23	26	
	2	7	3	3	4	4	21	22	
	3	8	3	3	3	3	17	22	
	4	17	2	2	2	3	14	19	
	5	29	1	2	2	3	11	18	
	6	30	1	2	1	2	11	16	
47	1	1	2	3	1	4	4	14	
	2	7	2	3	1	3	4	14	
	3	14	2	3	1	3	3	14	
	4	15	1	3	1	2	3	14	
	5	16	1	2	1	2	2	14	
	6	27	1	2	1	1	1	14	
48	1	12	4	4	3	1	8	18	
	2	18	3	4	2	1	8	17	
	3	21	3	4	2	1	7	16	
	4	22	3	3	2	1	7	13	
	5	23	1	2	2	1	6	11	
	6	25	1	2	2	1	6	10	
49	1	1	5	4	5	5	26	21	
	2	2	4	3	3	4	20	20	
	3	3	4	3	3	4	19	18	
	4	13	4	3	2	4	14	14	
	5	21	4	3	1	3	14	12	
	6	26	4	3	1	3	11	10	
50	1	11	5	3	4	5	13	19	
	2	17	4	3	3	4	12	16	
	3	18	4	3	3	4	11	16	
	4	19	3	3	3	4	11	14	
	5	20	3	2	2	4	9	13	
	6	23	2	2	2	4	9	11	
51	1	1	4	4	4	5	27	18	
	2	10	4	4	3	4	24	16	
	3	15	4	4	2	4	21	16	
	4	20	4	4	2	4	21	13	
	5	21	4	4	1	4	16	13	
	6	26	4	4	1	4	16	12	
52	1	0	0	0	0	0	0	0	
************************************************************************

 RESOURCE AVAILABILITIES 
	R 1	R 2	R 3	R 4	N 1	N 2
	30	28	26	35	637	687

************************************************************************
